StringID Type x y demand ReadyTime DueDate ServiceTime
D0 d 40 50 0 0 240 0
Dt d 40 50 0 0 240 0
S0 f 40 50 0 0 240 0
S3 f 57 82 0 0 240 0
S9 f 14 59 0 0 240 0
S15 f 39 26 0 0 240 0
C11 c3 8 40 40 76 126 10
C22 c3 40 15 40 96 146 10
C55 c3 30 60 16 15 116 10
C82 c2 27 43 9 111 147 10
C36 c2 65 85 40 59 114 10
P0 p 40 18 0 0 240 45
param Q := 77.75
param CV := 200
param r := 1
param g := 0.39
param V := 1
